experiments/sat_smt/run/sat-r/results/alex.res
solved=true
solvingTime=50.88216400146484375
nActions=13