experiments/sat_smt/run/sat-r/results/alex.out
Timesteps: 1
s UNSATISFIABLE
real 0.16
user 0.02
sys 0.00
Timesteps: 2
s UNSATISFIABLE
real 0.30
user 0.04
sys 0.00
Timesteps: 3
s UNSATISFIABLE
real 0.31
user 0.12
sys 0.00
Timesteps: 4
s UNSATISFIABLE
real 0.36
user 0.27
sys 0.00
Timesteps: 5
s UNSATISFIABLE
real 0.71
user 0.59
sys 0.01
Timesteps: 6
s UNSATISFIABLE
real 1.40
user 1.26
sys 0.01
Timesteps: 7
s UNSATISFIABLE
real 2.72
user 2.53
sys 0.02
Timesteps: 8
s UNSATISFIABLE
real 2.30
user 2.09
sys 0.02
Timesteps: 9
s UNSATISFIABLE
real 2.97
user 2.73
sys 0.03
Timesteps: 10
s UNSATISFIABLE
real 4.83
user 4.58
sys 0.02
Timesteps: 11
s UNSATISFIABLE
real 5.85
user 5.53
sys 0.03
Timesteps: 12
s UNSATISFIABLE
real 14.09
user 13.33
sys 0.05
Timesteps: 13
s SATISFIABLE
real 15.47
user 14.65
sys 0.06
